RT is False
Default write of storage_offers_DA.csv just to have a file (but constraint should be inactive)
Reading model...
...model read.
creating competitive generators file...
...competitive generators recorded.
Loading data...
.. day-ahead data with real-time VRE data read.
Compiling instance...
...instance created.
Creating Offer Mitigation (model will solve as dispatch if TRUE)...
Solving...

Welcome to IBM(R) ILOG(R) CPLEX(R) Interactive Optimizer 12.8.0.0
  with Simplex, Mixed Integer & Barrier Optimizers
5725-A06 5725-A29 5724-Y48 5724-Y49 5724-Y54 5724-Y55 5655-Y21
Copyright IBM Corp. 1988, 2017.  All Rights Reserved.

Type 'help' for a list of available commands.
Type 'help' followed by a command name for more
information on commands.

CPLEX> Logfile 'cplex.log' closed.
Logfile 'C:\Users\llavi\Desktop\test919\logs\tmplfbbdd4t.cplex.log' open.
CPLEX> New value for parallel optimization mode: -1
CPLEX> New value for mixed integer optimality gap tolerance: 0.01
CPLEX> New value for integrality tolerance: 1e-09
CPLEX> New value for feasibility tolerance: 0.01
CPLEX> New value for deterministic time limit in ticks: 75000
CPLEX> Problem 'C:\Users\llavi\Desktop\test919\logs\tmp1ynru805.pyomo.lp' read.
Read time = 0.06 sec. (3.03 ticks)
CPLEX> Problem name         : C:\Users\llavi\Desktop\test919\logs\tmp1ynru805.pyomo.lp
Objective sense      : Minimize
Variables            :   26465  [Nneg: 1,  Box: 22000,  Free: 4464]
Objective nonzeros   :    2496
Linear constraints   :   27515  [Less: 14006,  Greater: 4416,  Equal: 9093]
  Nonzeros           :   89171
  RHS nonzeros       :   12273

Variables            : Min LB: -5000.000        Max UB: 1000000.       
Objective nonzeros   : Min   : 15.73158         Max   : 124.0997       
Linear constraints   :
  Nonzeros           : Min   : 0.8500000        Max   : 3000.000       
  RHS nonzeros       : Min   : 0.01666667       Max   : 5000.000       
CPLEX> CPXPARAM_Simplex_Tolerances_Feasibility          0.01
CPXPARAM_Parallel                                -1
CPXPARAM_DetTimeLimit                            75000
CPXPARAM_MIP_Tolerances_MIPGap                   0.01
CPXPARAM_MIP_Tolerances_Integrality              1.0000000000000001e-09
Parallel mode: opportunistic, using up to 4 threads for concurrent optimization.
Tried aggregator 1 time.
LP Presolve eliminated 21401 rows and 15894 columns.
Aggregator did 723 substitutions.
Reduced LP has 5391 rows, 9848 columns, and 31763 nonzeros.
Presolve time = 0.05 sec. (22.46 ticks)

Iteration log . . .
Iteration:     1   Dual objective     =             0.000000
Perturbation started.
Iteration:   101   Dual objective     =             0.000000
Iteration:   360   Dual objective     =             1.352565
Iteration:   630   Dual objective     =             1.975756
Iteration:   951   Dual objective     =             2.154308
Iteration:  1145   Dual objective     =             2.275755
Iteration:  1500   Dual objective     =             2.335273
Iteration:  1802   Dual objective     =             2.366909
Iteration:  2077   Dual objective     =         62898.413524
Iteration:  2366   Dual objective     =        103882.184274
Iteration:  2693   Dual objective     =        190923.540710
Iteration:  3023   Dual objective     =        266779.208830
Iteration:  3404   Dual objective     =        274539.130800
Iteration:  3724   Dual objective     =        282830.100684
Iteration:  4099   Dual objective     =        291461.241486
Removing perturbation.

Dual simplex solved model.


Dual simplex - Optimal:  Objective =  3.0001616882e+05
Solution time =    0.17 sec.  Iterations = 4546 (0)
Deterministic time = 96.91 ticks  (563.42 ticks/sec)

CPLEX> Solution written to file 'C:\Users\llavi\Desktop\test919\logs\tmp10o7fb2r.cplex.sol'.
CPLEX> Exporting results... 
...storage offer mitigation file created
Converting model to MPEC...
...converted
NOTE: initial MIP solve with only storage competitive to get feasible solution
Solving...

Welcome to IBM(R) ILOG(R) CPLEX(R) Interactive Optimizer 12.8.0.0
  with Simplex, Mixed Integer & Barrier Optimizers
5725-A06 5725-A29 5724-Y48 5724-Y49 5724-Y54 5724-Y55 5655-Y21
Copyright IBM Corp. 1988, 2017.  All Rights Reserved.

Type 'help' for a list of available commands.
Type 'help' followed by a command name for more
information on commands.

CPLEX> Logfile 'cplex.log' closed.
Logfile 'C:\Users\llavi\Desktop\test919\logs\tmpc3tk49qu.cplex.log' open.
CPLEX> New value for parallel optimization mode: -1
CPLEX> New value for mixed integer optimality gap tolerance: 0.01
CPLEX> New value for integrality tolerance: 1e-09
CPLEX> New value for feasibility tolerance: 0.01
CPLEX> New value for deterministic time limit in ticks: 75000
CPLEX> Problem 'C:\Users\llavi\Desktop\test919\logs\tmp62lopoyd.pyomo.lp' read.
Read time = 0.27 sec. (13.96 ticks)
CPLEX> Problem name         : C:\Users\llavi\Desktop\test919\logs\tmp62lopoyd.pyomo.lp
Objective sense      : Maximize
Variables            :   53805  [Nneg: 1,  Box: 22000,  Free: 4464,
                                 Binary: 27340]
Objective nonzeros   :    9080
Linear constraints   :  123205  [Less: 41346,  Greater: 59096,  Equal: 22763]
  Nonzeros           :  291707
  RHS nonzeros       :   67457

Variables            : Min LB: -5000.000        Max UB: 1000000.       
Objective nonzeros   : Min   : 0.01666667       Max   : 2500.000       
Linear constraints   :
  Nonzeros           : Min   : 0.01666667       Max   : 1000000.       
  RHS nonzeros       : Min   : 0.01666667       Max   : 1000000.       
CPLEX> CPXPARAM_Simplex_Tolerances_Feasibility          0.01
CPXPARAM_Parallel                                -1
CPXPARAM_DetTimeLimit                            75000
CPXPARAM_MIP_Tolerances_MIPGap                   0.01
CPXPARAM_MIP_Tolerances_Integrality              1.0000000000000001e-09
Tried aggregator 3 times.
MIP Presolve eliminated 88685 rows and 19034 columns.
MIP Presolve added 3353 rows and 0 columns.
MIP Presolve modified 23854 coefficients.
Aggregator did 12956 substitutions.
Reduced MIP has 24917 rows, 21260 columns, and 71027 nonzeros.
Reduced MIP has 8414 binaries, 0 generals, 0 SOSs, and 0 indicators.
Presolve time = 0.30 sec. (167.94 ticks)
Probing fixed 411 vars, tightened 2928 bounds.
Probing time = 3.25 sec. (905.07 ticks)
Tried aggregator 2 times.
MIP Presolve eliminated 925 rows and 822 columns.
MIP Presolve modified 2237 coefficients.
Aggregator did 48 substitutions.
Reduced MIP has 23944 rows, 20390 columns, and 68211 nonzeros.
Reduced MIP has 8003 binaries, 0 generals, 0 SOSs, and 0 indicators.
Presolve time = 0.13 sec. (54.23 ticks)
Probing time = 0.05 sec. (15.44 ticks)
Clique table members: 6408.
MIP emphasis: balance optimality and feasibility.
MIP search method: dynamic search.
Parallel mode: opportunistic, using up to 4 threads.
Root relaxation solution time = 0.66 sec. (581.02 ticks)

        Nodes                                         Cuts/
   Node  Left     Objective  IInf  Best Integer    Best Bound    ItCnt     Gap

      0     0      -41.2841   807                    -41.2841     4070         
      0     0      -41.2841    35                    Cuts: 58     4093         
      0     0      -41.2841    34                    Cuts: 15     4096         
      0     3    infeasible                          -43.7499     4215         
Elapsed time = 14.72 sec. (4778.96 ticks, tree = 0.02 MB, solutions = 0)
     83    34    -4847.8110     8                    -49.1803     4671         
    157   120    -4818.0310    11                    -49.1803     5511         
    210   135   -51615.4607    21                    -49.1803     6011         
    250   146    -1026.2013     1                    -49.1803     6660         
    282   165   -13582.1239     7                    -49.1803     7289         
    314   171     -592.5078     1                    -49.1803     8098         
    332   172     -592.5078     2                    -49.1803     8102         
    347   171    infeasible                          -49.1803     8090         
    359   171    infeasible                          -49.1803     8091         
    408   183    infeasible                          -49.1803     8144         
Elapsed time = 19.73 sec. (7956.92 ticks, tree = 1.10 MB, solutions = 0)
    450   201     -592.5078     4                    -49.1803     8191         
    483   208     -592.5078     4                    -49.1803     8222         
    516   220    infeasible                          -49.1803     8284         
    543   225   -36392.4340     1                    -49.1803     8318         
    569   233     -592.5078     2                    -49.1803     8643         
    596   246     -592.5078     2                    -49.1803     8694         
    616   248     -592.5078     2                    -49.1803     8697         
    637   250     -592.5078     2                    -49.1803     8714         
    656   254     -592.5078     4                    -49.1803     8732         
    677   261     -592.5078     4                    -49.1803     8755         
Elapsed time = 31.45 sec. (17936.70 ticks, tree = 1.65 MB, solutions = 0)
    702   270     -592.5078     4                    -49.1803     8798         
    725   274     -592.5078     4                    -49.1803     8819         
    744   277   -36392.4340     1                    -49.1803     8848         
    762   280    infeasible                          -49.1803     8866         
    776   280    infeasible                          -49.1803     8869         
    787   286     -592.5078     2                    -49.1803     8886         
    800   288     -592.5078     4                    -49.1803     8900         
    815   291   -36392.4340     1                    -49.1803     8920         
    830   292   -36392.4340     1                    -49.1803     8933         
    841   294    infeasible                          -49.1803     8952         
Elapsed time = 44.38 sec. (28970.26 ticks, tree = 1.87 MB, solutions = 0)
    855   295    infeasible                          -49.1803     8956         
    865   300   -36392.4340     1                    -49.1803     8976         
    877   304     -592.5078     1                    -49.1803     8987         
    889   304   -36392.4340     1                    -49.1803     8995         
    901   304   -36392.4340     1                    -49.1803     8998         
    913   311     -592.5078     4                    -49.1803     9012         
    955   317  -138987.4192     7                    -49.1803     9717         
   1029   362   -21336.4299     9                    -49.1803    10251         
   1079   317     -592.5078     4                    -49.1803     9029         
   1102   319     -592.5078     4                    -49.1803     9634         
Elapsed time = 56.47 sec. (39119.89 ticks, tree = 2.63 MB, solutions = 0)
   1117   388     -742.4670     1                    -49.1803    10437         
   1139   391     -592.5078     4                    -49.1803    10431         
   1152   392     -592.5078     4                    -49.1803    10432         
   1169   403     -742.4670     1                    -49.1803    10498         
   1181   397     -592.5078     3                    -49.1803    10464         
   1195   400     -592.5078     4                    -49.1803    10473         
   1208   401     -592.5078     4                    -49.1803    10474         
   1219   412     -592.5078     4                    -49.1803    10525         
   1231   420     -742.4670     1                    -49.1803    10556         
   1247   415     -592.5078     4                    -49.1803    10535         
Elapsed time = 67.81 sec. (49634.45 ticks, tree = 2.60 MB, solutions = 0)
   1261   420     -742.4670     1                    -49.1803    10562         
   1276   423     -592.5078     4                    -49.1803    10575         
   1289   426    infeasible                          -49.1803    10611         
   1301   431     -592.5078     2                    -49.1803    10619         
   1314   436    infeasible                          -49.1803    10664         
   1325   437     -592.5078     2                    -49.1803    10650         
   1334   438     -742.4670     1                    -49.1803    10674         
   1346   444     -742.4670     1                    -49.1803    10701         
   1355   441     -592.5078     4                    -49.1803    10671         
   1367   444     -742.4670     1                    -49.1803    10707         
Elapsed time = 80.83 sec. (60709.46 ticks, tree = 2.82 MB, solutions = 0)
   1378   451     -742.4670     1                    -49.1803    10733         
   1386   451     -592.5078     3                    -49.1803    10736         
   1398   453     -592.5078     2                    -49.1803    10743         
*  1402   426      integral     0     -592.5078      -49.1803    10745   91.70%
   1464   108        cutoff           -592.5078      -49.1803    10885   91.70%
   1540   119     -583.5463     3     -592.5078     -107.4130    10920   81.87%
   1754    32     -577.0181    12     -592.5078     -107.4130    11051   81.87%
   1979   246     -316.1049    17     -592.5078     -107.4130    11465   81.87%
   2178   324     -296.7991    16     -592.5078     -296.4486    12163   49.97%
   2347   106        cutoff           -592.5078     -296.4486    11539   49.97%
   2412   535        cutoff           -592.5078     -296.7991    12904   49.91%
Elapsed time = 94.81 sec. (70599.48 ticks, tree = 3.94 MB, solutions = 1)
   2459   543     -296.9604     5     -592.5078     -296.7991    12921   49.91%
   2504   547     -296.9604     5     -592.5078     -296.7991    12952   49.91%
   2543   551     -329.5329     4     -592.5078     -296.7991    12975   49.91%
   2578   576     -581.2933     3     -592.5078     -296.7991    13079   49.91%

Cover cuts applied:  2
Implied bound cuts applied:  3
Flow cuts applied:  37
Gomory fractional cuts applied:  21

Root node processing (before b&c):
  Real time             =   14.56 sec. (4766.93 ticks)
Parallel b&c, 4 threads:
  Real time             =   84.88 sec. (70498.53 ticks)
  Sync time (average)   =    0.09 sec.
  Wait time (average)   =    0.02 sec.
                          ------------
Total (root+branch&cut) =   99.44 sec. (75265.47 ticks)

Solution pool: 1 solution saved.

MIP - Deterministic time limit exceeded, integer feasible:  Objective = -5.9250782254e+02
Current MIP best bound = -2.9679912022e+02 (gap = 295.709, 49.91%)
Solution time =   99.45 sec.  Iterations = 13198  Nodes = 2594 (605)
Deterministic time = 75265.62 ticks  (756.80 ticks/sec)

CPLEX> Incumbent solution written to file 'C:\Users\llavi\Desktop\test919\logs\tmp8dja23p0.cplex.sol'.
CPLEX> NOTE: no warmstart specified for MIP iteration, default behavior is true
NOTE: resolving with all competitive generators using storage-only solution to warmstart
Solving...

Welcome to IBM(R) ILOG(R) CPLEX(R) Interactive Optimizer 12.8.0.0
  with Simplex, Mixed Integer & Barrier Optimizers
5725-A06 5725-A29 5724-Y48 5724-Y49 5724-Y54 5724-Y55 5655-Y21
Copyright IBM Corp. 1988, 2017.  All Rights Reserved.

Type 'help' for a list of available commands.
Type 'help' followed by a command name for more
information on commands.

CPLEX> Logfile 'cplex.log' closed.
Logfile 'C:\Users\llavi\Desktop\test919\logs\tmp9u1h1bqh.cplex.log' open.
CPLEX> New value for parallel optimization mode: -1
CPLEX> New value for mixed integer optimality gap tolerance: 0.01
CPLEX> New value for integrality tolerance: 1e-09
CPLEX> New value for feasibility tolerance: 0.01
CPLEX> New value for deterministic time limit in ticks: 75000
CPLEX> Problem 'C:\Users\llavi\Desktop\test919\logs\tmpftqqxbyi.pyomo.lp' read.
Read time = 0.27 sec. (13.98 ticks)
CPLEX> MIP start file 'C:\Users\llavi\Desktop\test919\logs\tmp4jeqzv48.cplex.mst' read.
CPLEX> Problem name         : C:\Users\llavi\Desktop\test919\logs\tmpftqqxbyi.pyomo.lp
Objective sense      : Maximize
Variables            :   54525  [Nneg: 1,  Box: 22720,  Free: 4464,
                                 Binary: 27340]
Objective nonzeros   :    9776
Linear constraints   :  123205  [Less: 41346,  Greater: 59096,  Equal: 22763]
  Nonzeros           :  291707
  RHS nonzeros       :   67457

Variables            : Min LB: -5000.000        Max UB: 1000000.       
Objective nonzeros   : Min   : 0.01666667       Max   : 2500.000       
Linear constraints   :
  Nonzeros           : Min   : 0.01666667       Max   : 1000000.       
  RHS nonzeros       : Min   : 0.01666667       Max   : 1000000.       
CPLEX> CPXPARAM_Simplex_Tolerances_Feasibility          0.01
CPXPARAM_Parallel                                -1
CPXPARAM_DetTimeLimit                            75000
CPXPARAM_MIP_Tolerances_MIPGap                   0.01
CPXPARAM_MIP_Tolerances_Integrality              1.0000000000000001e-09
Warning:  No solution found from 1 MIP starts.
Retaining values of one MIP start for possible repair.
Tried aggregator 3 times.
MIP Presolve eliminated 88685 rows and 19754 columns.
MIP Presolve added 3353 rows and 0 columns.
MIP Presolve modified 23854 coefficients.
Aggregator did 12956 substitutions.
Reduced MIP has 24917 rows, 21260 columns, and 71027 nonzeros.
Reduced MIP has 8414 binaries, 0 generals, 0 SOSs, and 0 indicators.
Presolve time = 0.25 sec. (168.31 ticks)
Probing fixed 411 vars, tightened 2928 bounds.
Probing time = 3.25 sec. (905.07 ticks)
Tried aggregator 2 times.
MIP Presolve eliminated 925 rows and 822 columns.
MIP Presolve modified 2237 coefficients.
Aggregator did 48 substitutions.
Reduced MIP has 23944 rows, 20390 columns, and 68211 nonzeros.
Reduced MIP has 8003 binaries, 0 generals, 0 SOSs, and 0 indicators.
Presolve time = 0.11 sec. (54.24 ticks)
Probing time = 0.06 sec. (15.44 ticks)
Clique table members: 6408.
MIP emphasis: balance optimality and feasibility.
MIP search method: dynamic search.
Parallel mode: opportunistic, using up to 4 threads.
Root relaxation solution time = 0.61 sec. (593.21 ticks)

        Nodes                                         Cuts/
   Node  Left     Objective  IInf  Best Integer    Best Bound    ItCnt     Gap

      0     0   146514.5261   947                 146514.5261     4105         
      0     0   143673.5082   756                   Cuts: 724     4510         
      0     0   143051.8665   629                   Cuts: 512     4726         
      0     0   142844.3967   594                   Cuts: 277     4826         
      0     0   142788.3691   566                    Cuts: 94     4876         
      0     0   142748.1974   562                    Cuts: 87     4907         
      0     0   142748.1974   558                    Cuts: 23     4912         
      0     0   142748.1974   558                    Cuts: 23     4914         
Repair heuristic found nothing.
      0     2   142748.1974   558                 142703.8347     4914         
Elapsed time = 26.95 sec. (10293.06 ticks, tree = 0.31 MB, solutions = 0)
     70    54   134793.9628   472                 141301.4104     5485         
    135    97   101260.2078   431                 141301.4104     6288         
    190   146    75843.9129   415                 141301.4104     7712         
    256   196    infeasible                       141301.4104     8475         
    335   229    75560.6336   416                 141301.4104     9015         
    431   267    60125.7231   399                 141301.4104    10152         
    506   329    infeasible                       141301.4104    11291         
    598   339    47554.2045   390                 141301.4104    11752         
    695   413    28579.0366   328                 141301.4104    12248         
   1163   762    47986.4357   292                 141301.4104    13446         
Elapsed time = 32.30 sec. (13426.30 ticks, tree = 8.02 MB, solutions = 0)
   1728  1363    44173.3280   273                 141301.4104    13723         
   2084  1622    43120.0747   216                 141301.4104    16133         
   2187  1781    infeasible                       141301.4104    17492         
   2376  1824    infeasible                       139674.5394    19062         
   2627  1804   129705.6412   499                 139674.5394    20021         
   2750  1881   125709.3033   442                 139674.5394    23034         
   2752  2059    88416.9427   285                 107573.4875    38470         
   2913   136    93714.4921   214                 100482.0478    41296         
   3115   220    57203.5179   199                  98779.1844    42632         
   3347   425    48276.3101   164                  98779.1844    45013         
Elapsed time = 79.02 sec. (33083.95 ticks, tree = 5.78 MB, solutions = 0)
   3588   637    46584.0269   162                  98779.1844    46085         
   3660   861    39972.9135   144                  98779.1844    48081         
   3806   945    22988.8208   161                  98779.1844    49663         
   3970  1063   -36774.9834   140                  98779.1844    50778         
   4094  1207    75636.2661   190                  98602.0889    53075         
   4246  1317    73040.1540   175                  96011.7044    54361         
   4551  1514  -312659.6367   179                  96011.7044    57738         
   4882  1839    43931.3241   187                  96011.7044    61271         
   5167  2112    51259.6825    57                  96011.7044    63639         
*  5318  2288      integral     0    50747.2453    96011.7044    65598   89.20%
Elapsed time = 100.16 sec. (42188.12 ticks, tree = 9.21 MB, solutions = 1)
   5515  1019    70183.6601   173    50747.2453    93816.8713    67774   84.87%
   5764  1147    56477.8738   152    50747.2453    93816.8713    68808   84.87%
   6007  1435        cutoff          50747.2453    93816.8713    71824   84.87%
   6270  1605    56688.3261   153    50747.2453    93816.8713    73434   84.87%
   6519  1907    73270.0890   168    50747.2453    93816.8713    75703   84.87%
   6771  2073    73113.1636   170    50747.2453    93816.8713    77450   84.87%
   7046  2260    62472.5531   162    50747.2453    93816.8713    79207   84.87%
   7264  2487    70179.0436   144    50747.2453    93816.8713    81245   84.87%
   7293  2532    55702.1127   152    50747.2453    93816.8713    81657   84.87%
   7448  2694    74099.3495   187    50747.2453    93816.8713    83141   84.87%
Elapsed time = 134.52 sec. (52767.31 ticks, tree = 32.20 MB, solutions = 1)
   7651  2789        cutoff          50747.2453    93816.8713    85389   84.87%
   7861  2950    75079.6922   173    50747.2453    81428.0354    90404   60.46%
   8121  3181    53170.0312    32    50747.2453    81428.0354    94190   60.46%
   8322  3318    53109.5761   244    50747.2453    81428.0354    98441   60.46%
   8578  3460    70726.3922   175    50747.2453    81428.0354    99503   60.46%
   8802  3671    71820.0001   198    50747.2453    81428.0354   102183   60.46%
   9074  3853    71872.3232   185    50747.2453    81428.0354   104359   60.46%
   9328  4081    68492.0898   177    50747.2453    81428.0354   106482   60.46%
   9375  4255        cutoff          50747.2453    81147.0028   117321   59.90%
   9446    31    66468.8944   139    50747.2453    81147.0028   118687   59.90%
Elapsed time = 158.70 sec. (67018.46 ticks, tree = 0.69 MB, solutions = 1)
   9548   107    57374.4067   123    50747.2453    81147.0028   120507   59.90%
   9669   183    86339.6232   126    50747.2453    81147.0028   121920   59.90%
   9798   267    81650.2684   173    50747.2453    81147.0028   124135   59.90%
   9957   338    83496.9589   120    50747.2453    81147.0028   126240   59.90%
  10089   377        cutoff          50747.2453    81147.0028   130736   59.90%
  10220   391    51857.6802   110    50747.2453    81147.0028   133956   59.90%
  10386   492    65671.8682   126    50747.2453    81147.0028   136286   59.90%
  10607   530    75872.5114   126    50747.2453    81147.0028   137023   59.90%

GUB cover cuts applied:  1
Clique cuts applied:  22
Cover cuts applied:  20
Implied bound cuts applied:  27
Flow cuts applied:  459
Mixed integer rounding cuts applied:  46
Gomory fractional cuts applied:  63

Root node processing (before b&c):
  Real time             =   26.66 sec. (10234.47 ticks)
Parallel b&c, 4 threads:
  Real time             =  148.88 sec. (64788.15 ticks)
  Sync time (average)   =    1.25 sec.
  Wait time (average)   =    0.05 sec.
                          ------------
Total (root+branch&cut) =  175.53 sec. (75022.62 ticks)

Solution pool: 1 solution saved.

MIP - Deterministic time limit exceeded, integer feasible:  Objective =  5.0747245295e+04
Current MIP best bound =  8.1147002783e+04 (gap = 30399.8, 59.90%)
Solution time =  175.55 sec.  Iterations = 139618  Nodes = 10644 (723)
Deterministic time = 75022.78 ticks  (427.37 ticks/sec)

CPLEX> Incumbent solution written to file 'C:\Users\llavi\Desktop\test919\logs\tmpdbti4eij.cplex.sol'.
CPLEX> Exporting results... 
